NAME: swiss42
TYPE: TSP
COMMENT: Exemple de cours
DIMENSION: 9
EDGE_WEIGHT_TYPE: EXPLICIT
EDGE_WEIGHT_FORMAT: FULL_MATRIX 
EDGE_WEIGHT_SECTION  
100 4 100 100 100 100 100 8 100
4 100 8 100 100 100 100 11 100
100 8 100 7 100 4 100 100 2
100 100 7 100 9 14 100 100 100
100 100 100 9 100 10 100 100 100
100 100 4 14 10 100 2 100 100 
100 100 100 100 100 2 100 1 6
8 11 100 100 100 100 1 100 7
100 100 2 100 100 100 6 7 100 
EOF